SECTION Graph
Nodes 713
Edges 712

E 1 2 1
E 1 3 1
E 1 5 1
E 1 9 1
E 1 17 1
E 1 33 1
E 1 65 1
E 1 129 1
E 1 257 1
E 2 4 1
E 2 6 1
E 2 10 1
E 2 18 1
E 2 34 1
E 2 66 1
E 2 130 1
E 2 258 1
E 2 514 1
E 3 7 1
E 3 11 1
E 3 19 1
E 3 35 1
E 3 67 1
E 3 131 1
E 3 259 1
E 3 515 1
E 4 8 1
E 4 12 1
E 4 20 1
E 4 36 1
E 4 68 1
E 4 132 1
E 4 260 1
E 5 13 1
E 5 21 1
E 5 37 1
E 5 69 1
E 5 133 1
E 5 261 1
E 5 517 1
E 6 14 1
E 6 22 1
E 6 38 1
E 6 70 1
E 6 134 1
E 6 262 1
E 8 16 1
E 8 24 1
E 8 40 1
E 8 72 1
E 8 136 1
E 8 264 1
E 8 520 1
E 9 25 1
E 9 41 1
E 9 73 1
E 9 137 1
E 9 265 1
E 9 521 1
E 10 26 1
E 10 42 1
E 10 74 1
E 10 138 1
E 10 266 1
E 12 28 1
E 12 44 1
E 12 76 1
E 12 140 1
E 12 268 1
E 12 524 1
E 14 30 1
E 14 46 1
E 14 78 1
E 14 142 1
E 14 270 1
E 14 526 1
E 17 49 1
E 17 81 1
E 17 145 1
E 17 273 1
E 17 529 1
E 18 50 1
E 18 82 1
E 18 146 1
E 18 274 1
E 20 52 1
E 20 84 1
E 20 148 1
E 20 276 1
E 20 532 1
E 22 54 1
E 22 86 1
E 22 150 1
E 22 278 1
E 22 534 1
E 23 24 1
E 23 55 1
E 23 87 1
E 23 151 1
E 23 279 1
E 23 535 1
E 24 32 1
E 24 56 1
E 24 88 1
E 24 152 1
E 24 280 1
E 26 58 1
E 26 90 1
E 26 154 1
E 26 282 1
E 26 538 1
E 27 28 1
E 27 59 1
E 27 91 1
E 27 155 1
E 27 283 1
E 27 539 1
E 28 60 1
E 28 92 1
E 28 156 1
E 28 284 1
E 29 61 1
E 29 93 1
E 29 285 1
E 31 32 1
E 32 64 1
E 32 96 1
E 32 160 1
E 32 288 1
E 32 544 1
E 33 97 1
E 33 161 1
E 33 289 1
E 33 545 1
E 34 98 1
E 34 162 1
E 34 290 1
E 36 100 1
E 36 164 1
E 36 292 1
E 36 548 1
E 38 102 1
E 38 166 1
E 38 294 1
E 38 550 1
E 39 40 1
E 39 103 1
E 39 167 1
E 39 295 1
E 40 48 1
E 40 104 1
E 40 168 1
E 40 296 1
E 42 106 1
E 42 170 1
E 42 298 1
E 42 554 1
E 43 44 1
E 43 107 1
E 43 171 1
E 43 299 1
E 44 108 1
E 44 172 1
E 44 300 1
E 45 109 1
E 45 301 1
E 47 48 1
E 48 112 1
E 48 176 1
E 48 304 1
E 48 560 1
E 50 114 1
E 50 178 1
E 50 306 1
E 50 562 1
E 51 52 1
E 51 115 1
E 51 179 1
E 52 116 1
E 52 180 1
E 52 308 1
E 53 117 1
E 53 181 1
E 53 309 1
E 56 120 1
E 56 184 1
E 56 312 1
E 56 568 1
E 57 121 1
E 57 185 1
E 57 569 1
E 60 124 1
E 60 188 1
E 60 316 1
E 60 572 1
E 65 193 1
E 65 321 1
E 65 577 1
E 66 194 1
E 66 322 1
E 68 196 1
E 68 324 1
E 68 580 1
E 70 198 1
E 70 326 1
E 70 582 1
E 71 72 1
E 71 199 1
E 72 80 1
E 72 200 1
E 74 202 1
E 74 330 1
E 74 586 1
E 75 76 1
E 75 203 1
E 76 204 1
E 79 80 1
E 80 208 1
E 80 336 1
E 80 592 1
E 82 210 1
E 82 338 1
E 82 594 1
E 84 212 1
E 88 216 1
E 88 344 1
E 88 600 1
E 92 220 1
E 92 348 1
E 92 604 1
E 98 226 1
E 98 354 1
E 98 610 1
E 100 228 1
E 104 232 1
E 104 360 1
E 104 616 1
E 108 236 1
E 108 364 1
E 108 620 1
E 116 244 1
E 116 372 1
E 116 628 1
E 118 126 1
E 118 630 1
E 119 127 1
E 119 631 1
E 125 127 1
E 125 253 1
E 126 128 1
E 127 128 1
E 127 383 1
E 129 385 1
E 129 641 1
E 130 386 1
E 131 135 1
E 131 147 1
E 131 163 1
E 132 388 1
E 132 644 1
E 134 390 1
E 134 646 1
E 135 143 1
E 136 144 1
E 138 394 1
E 138 650 1
E 141 143 1
E 141 157 1
E 141 173 1
E 143 159 1
E 143 175 1
E 143 399 1
E 144 400 1
E 144 656 1
E 146 402 1
E 146 658 1
E 147 211 1
E 152 408 1
E 152 664 1
E 156 412 1
E 156 668 1
E 158 190 1
E 158 222 1
E 158 670 1
E 159 191 1
E 159 415 1
E 159 671 1
E 162 418 1
E 162 674 1
E 163 227 1
E 168 424 1
E 168 680 1
E 172 428 1
E 172 684 1
E 175 431 1
E 175 687 1
E 180 436 1
E 180 692 1
E 187 443 1
E 187 699 1
E 194 450 1
E 194 706 1
E 200 456 1
E 200 712 1
E 201 203 1
E 201 205 1
E 201 457 1
E 203 207 1
E 203 219 1
E 203 235 1
E 203 459 1
E 204 460 1
E 204 716 1
E 207 463 1
E 207 719 1
E 209 211 1
E 209 213 1
E 209 465 1
E 211 215 1
E 211 243 1
E 212 468 1
E 212 724 1
E 215 471 1
E 217 219 1
E 219 223 1
E 219 475 1
E 225 227 1
E 225 229 1
E 225 481 1
E 225 737 1
E 227 231 1
E 227 483 1
E 228 484 1
E 228 740 1
E 230 238 1
E 230 246 1
E 230 486 1
E 230 742 1
E 231 487 1
E 231 743 1
E 233 235 1
E 235 239 1
E 235 251 1
E 235 491 1
E 235 747 1
E 241 243 1
E 243 247 1
E 243 499 1
E 250 506 1
E 256 512 1
E 257 769 1
E 259 263 1
E 259 267 1
E 259 275 1
E 259 291 1
E 259 323 1
E 260 772 1
E 261 269 1
E 261 277 1
E 261 293 1
E 261 325 1
E 262 774 1
E 263 271 1
E 263 327 1
E 263 391 1
E 266 778 1
E 267 331 1
E 267 395 1
E 269 285 1
E 269 301 1
E 269 333 1
E 269 397 1
E 274 786 1
E 275 307 1
E 275 339 1
E 275 403 1
E 277 309 1
E 277 341 1
E 277 405 1
E 280 792 1
E 281 285 1
E 281 313 1
E 281 345 1
E 281 409 1
E 284 796 1
E 285 286 1
E 285 287 1
E 285 317 1
E 285 349 1
E 286 318 1
E 286 350 1
E 286 414 1
E 286 798 1
E 287 319 1
E 287 351 1
E 290 802 1
E 291 355 1
E 291 419 1
E 293 357 1
E 293 421 1
E 296 808 1
E 297 301 1
E 297 361 1
E 297 425 1
E 300 812 1
E 301 302 1
E 301 303 1
E 301 365 1
E 302 366 1
E 302 430 1
E 302 814 1
E 303 367 1
E 305 309 1
E 305 369 1
E 305 433 1
E 308 820 1
E 309 310 1
E 309 311 1
E 309 373 1
E 309 437 1
E 310 374 1
E 310 438 1
E 311 375 1
E 311 439 1
E 315 379 1
E 315 443 1
E 317 381 1
E 317 445 1
E 317 829 1
E 322 834 1
E 323 451 1
E 325 453 1
E 341 342 1
E 341 343 1
E 342 470 1
E 343 855 1
E 349 477 1
E 349 861 1
E 357 358 1
E 358 486 1
E 365 493 1
E 365 877 1
E 373 501 1
E 373 885 1
E 378 506 1
E 379 383 1
E 384 512 1
E 386 898 1
E 399 911 1
E 437 949 1
E 442 506 1
E 448 512 1
E 459 971 1
E 460 464 1
E 460 476 1
E 460 492 1
E 462 464 1
E 464 480 1
E 464 496 1
E 464 976 1
E 474 476 1
E 476 508 1
E 483 995 1
E 486 488 1
E 486 494 1
E 486 502 1
E 488 504 1
E 488 1000 1
E 490 492 1
E 492 1004 1
E 494 510 1
E 498 502 1
E 505 506 1
E 506 1018 1
E 511 512 1
E 512 1024 1
E 515 519 1
E 515 523 1
E 515 531 1
E 515 547 1
E 515 579 1
E 517 525 1
E 517 533 1
E 517 549 1
E 517 581 1
E 519 527 1
E 519 551 1
E 519 583 1
E 519 647 1
E 519 775 1
E 521 537 1
E 521 553 1
E 521 585 1
E 523 555 1
E 523 587 1
E 523 651 1
E 523 779 1
E 525 541 1
E 525 557 1
E 525 589 1
E 525 653 1
E 525 781 1
E 531 563 1
E 531 595 1
E 531 659 1
E 531 787 1
E 533 565 1
E 533 597 1
E 533 661 1
E 533 789 1
E 537 569 1
E 537 601 1
E 537 665 1
E 537 793 1
E 547 611 1
E 547 675 1
E 547 803 1
E 549 613 1
E 549 677 1
E 549 805 1
E 553 617 1
E 553 681 1
E 553 809 1
E 561 569 1
E 561 625 1
E 569 570 1
E 569 571 1
E 570 574 1
E 571 575 1
E 571 635 1
E 571 699 1
E 579 707 1
E 581 709 1
E 585 713 1
E 601 602 1
E 601 603 1
E 601 605 1
E 602 606 1
E 603 607 1
E 603 859 1
E 605 733 1
E 621 622 1
E 621 623 1
E 621 637 1
E 621 749 1
E 621 877 1
E 634 762 1
E 640 768 1
E 665 666 1
E 666 670 1
E 670 702 1
E 686 702 1
E 689 693 1
E 693 694 1
E 693 695 1
E 693 701 1
E 693 757 1
E 693 949 1
E 698 762 1
E 704 768 1
E 716 720 1
E 716 748 1
E 718 720 1
E 720 752 1
E 721 722 1
E 722 724 1
E 724 728 1
E 724 732 1
E 724 756 1
E 724 980 1
E 726 728 1
E 727 728 1
E 728 736 1
E 728 760 1
E 728 984 1
E 730 732 1
E 731 732 1
E 732 764 1
E 732 988 1
E 746 748 1
E 754 756 1
E 755 756 1
E 761 762 1
E 762 1018 1
E 766 768 1
E 767 768 1
E 768 1024 1
E 783 784 1
E 783 799 1
E 783 815 1
E 783 847 1
E 783 911 1
E 817 818 1
E 818 820 1
E 820 824 1
E 820 828 1
E 820 884 1
E 820 948 1
E 822 824 1
E 823 824 1
E 824 832 1
E 824 888 1
E 824 952 1
E 826 828 1
E 827 828 1
E 828 892 1
E 828 956 1
E 834 836 1
E 834 838 1
E 834 842 1
E 834 850 1
E 834 866 1
E 834 962 1
E 835 836 1
E 836 840 1
E 836 844 1
E 836 852 1
E 836 868 1
E 837 838 1
E 838 846 1
E 838 854 1
E 838 870 1
E 841 842 1
E 842 858 1
E 842 874 1
E 849 850 1
E 850 882 1
E 864 896 1
E 865 866 1
E 871 879 1
E 875 879 1
E 877 879 1
E 877 893 1
E 877 1005 1
E 879 880 1
E 883 884 1
E 889 893 1
E 893 894 1
E 893 895 1
E 893 1021 1
E 896 1024 1
E 898 900 1
E 898 902 1
E 898 906 1
E 898 914 1
E 898 930 1
E 899 900 1
E 900 904 1
E 900 908 1
E 900 916 1
E 900 932 1
E 901 902 1
E 902 910 1
E 902 918 1
E 902 934 1
E 903 911 1
E 903 919 1
E 903 935 1
E 903 967 1
E 905 906 1
E 906 922 1
E 906 938 1
E 907 911 1
E 907 923 1
E 907 939 1
E 909 911 1
E 909 925 1
E 909 941 1
E 909 973 1
E 911 912 1
E 911 927 1
E 911 943 1
E 912 928 1
E 912 944 1
E 913 914 1
E 914 946 1
E 917 949 1
E 917 981 1
E 927 959 1
E 927 991 1
E 929 930 1
E 943 1007 1
E 945 949 1
E 945 1009 1
E 947 948 1
E 948 1012 1
E 949 950 1
E 949 951 1
E 949 957 1
E 950 1014 1
E 951 1015 1
E 953 957 1
E 957 958 1
E 961 962 1
E 962 964 1
E 962 966 1
E 962 970 1
E 962 978 1
E 962 994 1
E 979 980 1
E 985 986 1
E 986 1018 1
E 990 992 1
E 992 1024 1
E 997 1005 1
E 1000 1008 1
E 1001 1005 1
E 1005 1006 1
E 1008 1024 1
E 1018 1020 1
E 1019 1020 1
E 1020 1024 1
END
SECTION Terminals
T 1
T 4
T 6
T 7
T 10
T 11
T 13
T 16
T 18
T 19
T 21
T 24
T 25
T 28
T 30
T 31
T 34
T 35
T 37
T 40
T 41
T 44
T 46
T 47
T 49
T 52
T 54
T 55
T 58
T 59
T 61
T 64
T 66
T 67
T 69
T 72
T 73
T 76
T 78
T 79
T 81
T 84
T 86
T 87
T 90
T 91
T 93
T 96
T 97
T 100
T 102
T 103
T 106
T 107
T 109
T 112
T 114
T 115
T 117
T 120
T 121
T 124
T 126
T 127
T 130
T 131
T 133
T 136
T 137
T 140
T 142
T 143
T 145
T 148
T 150
T 151
T 154
T 155
T 157
T 160
T 161
T 164
T 166
T 167
T 170
T 171
T 173
T 176
T 178
T 179
T 181
T 184
T 185
T 188
T 190
T 191
T 193
T 196
T 198
T 199
T 202
T 203
T 205
T 208
T 210
T 211
T 213
T 216
T 217
T 220
T 222
T 223
T 226
T 227
T 229
T 232
T 233
T 236
T 238
T 239
T 241
T 244
T 246
T 247
T 250
T 251
T 253
T 256
T 258
T 259
T 261
T 264
T 265
T 268
T 270
T 271
T 273
T 276
T 278
T 279
T 282
T 283
T 285
T 288
T 289
T 292
T 294
T 295
T 298
T 299
T 301
T 304
T 306
T 307
T 309
T 312
T 313
T 316
T 318
T 319
T 321
T 324
T 326
T 327
T 330
T 331
T 333
T 336
T 338
T 339
T 341
T 344
T 345
T 348
T 350
T 351
T 354
T 355
T 357
T 360
T 361
T 364
T 366
T 367
T 369
T 372
T 374
T 375
T 378
T 379
T 381
T 384
T 385
T 388
T 390
T 391
T 394
T 395
T 397
T 400
T 402
T 403
T 405
T 408
T 409
T 412
T 414
T 415
T 418
T 419
T 421
T 424
T 425
T 428
T 430
T 431
T 433
T 436
T 438
T 439
T 442
T 443
T 445
T 448
T 450
T 451
T 453
T 456
T 457
T 460
T 462
T 463
T 465
T 468
T 470
T 471
T 474
T 475
T 477
T 480
T 481
T 484
T 486
T 487
T 490
T 491
T 493
T 496
T 498
T 499
T 501
T 504
T 505
T 508
T 510
T 511
T 514
T 515
T 517
T 520
T 521
T 524
T 526
T 527
T 529
T 532
T 534
T 535
T 538
T 539
T 541
T 544
T 545
T 548
T 550
T 551
T 554
T 555
T 557
T 560
T 562
T 563
T 565
T 568
T 569
T 572
T 574
T 575
T 577
T 580
T 582
T 583
T 586
T 587
T 589
T 592
T 594
T 595
T 597
T 600
T 601
T 604
T 606
T 607
T 610
T 611
T 613
T 616
T 617
T 620
T 622
T 623
T 625
T 628
T 630
T 631
T 634
T 635
T 637
T 640
T 641
T 644
T 646
T 647
T 650
T 651
T 653
T 656
T 658
T 659
T 661
T 664
T 665
T 668
T 670
T 671
T 674
T 675
T 677
T 680
T 681
T 684
T 686
T 687
T 689
T 692
T 694
T 695
T 698
T 699
T 701
T 704
T 706
T 707
T 709
T 712
T 713
T 716
T 718
T 719
T 721
T 724
T 726
T 727
T 730
T 731
T 733
T 736
T 737
T 740
T 742
T 743
T 746
T 747
T 749
T 752
T 754
T 755
T 757
T 760
T 761
T 764
T 766
T 767
T 769
T 772
T 774
T 775
T 778
T 779
T 781
T 784
T 786
T 787
T 789
T 792
T 793
T 796
T 798
T 799
T 802
T 803
T 805
T 808
T 809
T 812
T 814
T 815
T 817
T 820
T 822
T 823
T 826
T 827
T 829
T 832
T 834
T 835
T 837
T 840
T 841
T 844
T 846
T 847
T 849
T 852
T 854
T 855
T 858
T 859
T 861
T 864
T 865
T 868
T 870
T 871
T 874
T 875
T 877
T 880
T 882
T 883
T 885
T 888
T 889
T 892
T 894
T 895
T 898
T 899
T 901
T 904
T 905
T 908
T 910
T 911
T 913
T 916
T 918
T 919
T 922
T 923
T 925
T 928
T 929
T 932
T 934
T 935
T 938
T 939
T 941
T 944
T 946
T 947
T 949
T 952
T 953
T 956
T 958
T 959
T 961
T 964
T 966
T 967
T 970
T 971
T 973
T 976
T 978
T 979
T 981
T 984
T 985
T 988
T 990
T 991
T 994
T 995
T 997
T 1000
T 1001
T 1004
T 1006
T 1007
T 1009
T 1012
T 1014
T 1015
T 1018
T 1019
T 1021
T 1024
END
SECTION Cost
712
END
